========================================================== 
File name: C:\DEGR\assets\definitions\MSRCPSP_Gen\1000_20_1024_5_D.def
Creation date: Sat May 06 09:20:54 CEST 2023
Website: http://imopse.ii.pwr.edu.pl/ 
Reference: 
Myszkowski P. B., Skowronski M. E., Olech L., Oslizlo K., 
Hybrid Ant Colony Optimization in solving Multi-Skill Resource-Constrained Project Scheduling Problem, 
Soft Computing, DOI: DOI 10.1007/s00500-014-1455-x 
========================================================== 
General characteristics: 
Tasks: 1000
Resources: 20
Precedence relations: 1018
Number of skill types: 5
========================================================== 
ResourceID 	 Salary 	 Skills 
1	 	 	21.4	 	 Q4: 2 	  Q2: 0 	  Q0: 0 	 
2	 	 	27.1	 	 Q3: 0 	  Q1: 1 	  Q2: 1 	 
3	 	 	59.8	 	 Q2: 0 	  Q4: 2 	  Q3: 2 	 
4	 	 	65.0	 	 Q1: 2 	  Q0: 0 	 
5	 	 	96.2	 	 Q0: 3 	  Q3: 3 	 
6	 	 	84.5	 	 Q0: 0 	  Q3: 0 	  Q1: 0 	 
7	 	 	45.8	 	 Q0: 0 	  Q4: 3 	  Q3: 3 	  Q2: 0 	 
8	 	 	33.5	 	 Q4: 0 	  Q3: 3 	  Q2: 1 	  Q1: 2 	 
9	 	 	50.9	 	 Q3: 0 	  Q2: 0 	  Q4: 1 	  Q1: 0 	 
10	 	 	22.8	 	 Q4: 1 	  Q0: 1 	  Q2: 2 	 
11	 	 	26.6	 	 Q3: 1 	 
12	 	 	80.0	 	 Q2: 1 	  Q3: 2 	 
13	 	 	50.9	 	 Q0: 3 	  Q1: 1 	 
14	 	 	38.7	 	 Q2: 1 	 
15	 	 	67.5	 	 Q3: 0 	  Q1: 3 	 
16	 	 	57.5	 	 Q3: 0 	  Q1: 0 	 
17	 	 	92.6	 	 Q3: 0 	  Q4: 0 	 
18	 	 	22.8	 	 Q4: 0 	 
19	 	 	64.9	 	 Q3: 1 	  Q2: 1 	  Q0: 1 	 
20	 	 	97.7	 	 Q2: 1 	  Q4: 1 	  Q3: 0 	 
========================================================== 
TaskID 	 Duration 	 Skill 	 Predecessor IDs 
1	14	Q4:	3
2	19	Q2:	1
3	17	Q2:	1
4	21	Q0:	1
5	14	Q3:	3
6	16	Q1:	2
7	34	Q0:	0
8	23	Q0:	1
9	39	Q4:	0
10	38	Q1:	1
11	9	Q2:	2
12	39	Q2:	1
13	25	Q1:	3
14	14	Q3:	0
15	27	Q1:	3
16	17	Q3:	3
17	24	Q0:	1
18	27	Q2:	0
19	12	Q4:	1
20	30	Q1:	2
21	26	Q4:	2
22	37	Q1:	2
23	30	Q3:	3
24	15	Q4:	0
25	14	Q1:	3
26	39	Q3:	1
27	28	Q2:	2
28	17	Q4:	0
29	9	Q4:	3
30	17	Q1:	0
31	32	Q2:	2
32	26	Q0:	3
33	34	Q1:	1
34	40	Q1:	1
35	11	Q1:	0
36	11	Q4:	2
37	12	Q1:	1
38	24	Q4:	3
39	39	Q3:	0
40	33	Q3:	3
41	40	Q0:	1
42	21	Q2:	1
43	18	Q1:	2
44	26	Q0:	1
45	17	Q3:	1
46	20	Q3:	1
47	18	Q3:	1
48	33	Q3:	0
49	34	Q3:	3
50	17	Q0:	3
51	25	Q0:	3
52	15	Q3:	3
53	13	Q2:	0
54	40	Q1:	2
55	23	Q2:	0	34
56	20	Q0:	3
57	32	Q3:	3
58	32	Q0:	3
59	14	Q3:	1
60	38	Q3:	1
61	39	Q4:	2	37
62	25	Q3:	1
63	17	Q3:	3
64	16	Q3:	2
65	32	Q1:	2	3
66	10	Q4:	0
67	37	Q0:	0	13
68	20	Q1:	1
69	11	Q1:	3
70	30	Q1:	1
71	15	Q2:	1
72	38	Q2:	2	32
73	14	Q4:	0
74	14	Q3:	2
75	25	Q1:	0
76	11	Q0:	1
77	35	Q2:	0
78	35	Q2:	0
79	11	Q0:	3
80	38	Q0:	1
81	33	Q4:	2
82	17	Q0:	3
83	24	Q1:	1
84	33	Q0:	1
85	17	Q3:	1
86	15	Q4:	1
87	13	Q1:	2
88	9	Q3:	2
89	28	Q0:	0
90	16	Q1:	2
91	33	Q3:	3
92	14	Q4:	1
93	16	Q2:	1
94	36	Q0:	3
95	12	Q0:	0	52
96	19	Q2:	2	15
97	18	Q3:	0
98	27	Q1:	1
99	17	Q2:	2
100	20	Q1:	2	62
101	22	Q4:	0
102	17	Q3:	1
103	34	Q2:	1
104	25	Q2:	1
105	26	Q3:	1
106	29	Q0:	0
107	38	Q3:	1
108	35	Q0:	1
109	18	Q4:	1	103
110	16	Q0:	3
111	29	Q3:	2	83
112	20	Q3:	3
113	26	Q1:	0
114	37	Q4:	1	18
115	33	Q3:	2	15
116	29	Q3:	0	33	100
117	12	Q4:	2
118	29	Q3:	0
119	38	Q1:	2
120	34	Q1:	1
121	22	Q0:	0
122	32	Q3:	2	22
123	11	Q2:	1	87
124	12	Q0:	1
125	25	Q2:	2
126	24	Q4:	0
127	32	Q3:	1	48
128	21	Q4:	2
129	22	Q3:	1
130	14	Q0:	0
131	16	Q3:	2
132	39	Q0:	3
133	30	Q1:	3
134	12	Q4:	2	114
135	39	Q0:	0
136	38	Q2:	1
137	21	Q0:	0
138	10	Q3:	0	80
139	24	Q2:	0
140	30	Q3:	3
141	10	Q1:	1	16
142	11	Q4:	3
143	31	Q4:	3
144	33	Q0:	1
145	38	Q2:	1
146	11	Q3:	0
147	24	Q0:	0	132
148	9	Q4:	0
149	17	Q0:	1
150	17	Q4:	1	86
151	37	Q3:	1
152	16	Q4:	3
153	18	Q2:	2
154	25	Q1:	0
155	40	Q4:	3	59
156	38	Q0:	0
157	17	Q1:	0	140
158	35	Q4:	2	116
159	21	Q3:	2
160	33	Q4:	0
161	38	Q3:	3
162	16	Q3:	1	111	27
163	25	Q0:	1
164	36	Q2:	2
165	24	Q1:	3	18	147
166	25	Q3:	1
167	22	Q3:	1
168	34	Q0:	1
169	39	Q4:	3
170	35	Q2:	2	124	135
171	29	Q1:	0
172	19	Q4:	3	101
173	15	Q2:	2	67
174	24	Q1:	0
175	11	Q3:	1	60
176	14	Q3:	0
177	21	Q1:	3
178	38	Q3:	0
179	21	Q2:	0
180	11	Q4:	1
181	36	Q1:	3
182	9	Q3:	1	105
183	34	Q2:	0
184	22	Q4:	0
185	24	Q1:	3
186	21	Q1:	0
187	33	Q1:	3
188	27	Q4:	2	158
189	17	Q1:	1
190	26	Q4:	1
191	19	Q4:	1
192	40	Q0:	3	91	21
193	39	Q1:	2
194	30	Q3:	2
195	11	Q4:	2
196	17	Q1:	3
197	10	Q0:	1	5
198	23	Q4:	1
199	12	Q2:	0
200	25	Q1:	0
201	30	Q2:	0
202	21	Q2:	2
203	21	Q3:	0	52
204	12	Q2:	1
205	26	Q4:	3	180
206	24	Q1:	2
207	12	Q3:	3
208	33	Q0:	0
209	39	Q0:	1	147
210	21	Q0:	0	207	144
211	27	Q2:	0
212	37	Q2:	0	91
213	39	Q2:	2	184
214	13	Q1:	0
215	36	Q0:	3
216	24	Q0:	0	184
217	34	Q0:	1
218	26	Q1:	1
219	9	Q1:	1	66
220	21	Q4:	0	66
221	32	Q3:	1
222	39	Q4:	0	117
223	16	Q3:	0	193
224	25	Q2:	2	7	203
225	34	Q4:	0	150
226	36	Q0:	1
227	36	Q0:	0	36
228	26	Q1:	1	55
229	24	Q2:	0	45
230	34	Q1:	1
231	19	Q4:	1	158	118
232	9	Q2:	2	148	190
233	18	Q2:	2
234	9	Q4:	1	74
235	28	Q1:	2
236	27	Q0:	3
237	25	Q4:	0	178
238	27	Q2:	1
239	9	Q1:	1
240	29	Q3:	3
241	37	Q1:	0	71
242	22	Q1:	1	179	187
243	18	Q2:	0
244	17	Q4:	0
245	14	Q2:	1
246	31	Q3:	0
247	9	Q4:	1
248	31	Q2:	2	61	80
249	36	Q2:	1
250	33	Q3:	0	12
251	16	Q0:	3
252	39	Q2:	2	9	40
253	24	Q4:	1
254	29	Q1:	2
255	8	Q4:	1
256	34	Q4:	3	176
257	34	Q0:	0
258	30	Q2:	0	19	30
259	31	Q0:	0
260	23	Q3:	2	139
261	29	Q4:	3	166
262	17	Q1:	3	253	191
263	39	Q4:	1
264	36	Q1:	2
265	25	Q1:	1
266	15	Q1:	2
267	28	Q3:	0
268	33	Q4:	1
269	29	Q1:	1	176	166
270	22	Q2:	2	112	6	27
271	10	Q1:	3
272	38	Q4:	2	99
273	38	Q1:	2
274	15	Q1:	0
275	10	Q0:	1	63
276	36	Q0:	0
277	29	Q1:	2
278	21	Q3:	1
279	14	Q4:	1
280	26	Q1:	3
281	36	Q0:	1	153
282	24	Q3:	2	42
283	24	Q3:	3
284	27	Q1:	2
285	19	Q3:	0
286	19	Q0:	3	267	41
287	29	Q0:	1	244	149
288	27	Q1:	0	90
289	28	Q2:	0
290	35	Q4:	1	15
291	30	Q4:	1
292	15	Q1:	0	108
293	12	Q1:	3	225
294	11	Q3:	1
295	37	Q3:	0
296	27	Q4:	3
297	30	Q0:	0
298	37	Q1:	0
299	38	Q1:	3
300	24	Q2:	0	35
301	38	Q2:	2	208
302	33	Q1:	0	188
303	19	Q1:	0	138
304	15	Q2:	2
305	24	Q3:	1
306	26	Q2:	1	13
307	11	Q3:	1	125
308	29	Q1:	1
309	39	Q2:	2
310	28	Q3:	0	168
311	40	Q0:	0	278	262
312	15	Q1:	1
313	21	Q1:	2	42
314	30	Q0:	1
315	18	Q1:	2	53
316	26	Q1:	0	200
317	33	Q2:	2	315
318	37	Q2:	1	57
319	25	Q4:	1
320	16	Q3:	0	231
321	28	Q3:	1
322	34	Q3:	3	267
323	25	Q0:	1
324	11	Q1:	1
325	25	Q2:	0	324
326	19	Q2:	2	264
327	10	Q4:	2	125
328	16	Q2:	0	6
329	40	Q2:	2	15	52
330	20	Q3:	1
331	19	Q0:	1	254
332	40	Q1:	2
333	37	Q1:	0	39	261	206
334	35	Q3:	2
335	18	Q3:	3	182	243
336	13	Q0:	1
337	22	Q4:	3	318	253	2
338	35	Q1:	1
339	36	Q1:	1	251	335
340	23	Q4:	3	57
341	34	Q2:	1
342	32	Q0:	1	176
343	33	Q3:	0	46	270
344	17	Q4:	1	47	139
345	32	Q3:	2
346	22	Q3:	1	233	145
347	35	Q1:	0
348	38	Q1:	2
349	10	Q0:	3
350	38	Q4:	3	237
351	33	Q3:	1	310	344	345
352	28	Q0:	1	178
353	33	Q1:	2	335
354	20	Q4:	0
355	21	Q4:	3	106
356	19	Q0:	0	66
357	37	Q3:	3	327
358	19	Q3:	3
359	12	Q0:	3
360	14	Q0:	0
361	27	Q2:	1	82
362	13	Q1:	1	331	314
363	19	Q3:	0
364	30	Q0:	1	239
365	25	Q0:	1
366	28	Q4:	2
367	18	Q3:	0	286	60
368	20	Q1:	0
369	33	Q4:	1	67
370	39	Q3:	3	98
371	40	Q3:	2
372	11	Q4:	2
373	22	Q0:	0
374	29	Q3:	3
375	26	Q2:	0
376	29	Q1:	2
377	13	Q2:	0	151	110	182
378	14	Q1:	0	164	136
379	23	Q1:	0	342
380	26	Q2:	1
381	16	Q2:	1	2
382	13	Q1:	1	220
383	13	Q4:	0
384	13	Q2:	1
385	25	Q4:	0	120
386	9	Q1:	2	178
387	38	Q3:	3	296	299	341	386
388	10	Q3:	0	363	328	233
389	29	Q0:	1	202	102
390	15	Q4:	1
391	10	Q3:	2
392	14	Q1:	3
393	17	Q0:	0	162
394	14	Q2:	0
395	22	Q1:	2	12	294	267
396	19	Q3:	2
397	28	Q4:	2	269	1
398	34	Q3:	1
399	20	Q4:	0
400	26	Q0:	0
401	36	Q1:	3	98
402	25	Q3:	1	198
403	21	Q3:	3	368	217
404	17	Q1:	1	401	291
405	26	Q3:	3
406	26	Q4:	1	72	299
407	23	Q0:	1
408	34	Q2:	1
409	26	Q4:	3	293
410	9	Q2:	2	189
411	13	Q4:	1	10
412	15	Q0:	1	188	81
413	31	Q3:	2
414	19	Q1:	0	304
415	34	Q1:	3	268	21
416	36	Q2:	1	390	107
417	39	Q1:	1	158
418	15	Q1:	2	134	232
419	22	Q2:	0	366
420	24	Q2:	0
421	22	Q0:	1
422	10	Q0:	1	26
423	22	Q4:	1	37	76
424	30	Q3:	3
425	14	Q4:	1	312	228	46	251
426	18	Q4:	2	50	48
427	15	Q0:	1
428	21	Q4:	2
429	18	Q2:	0	122
430	28	Q1:	3
431	20	Q4:	2	72
432	34	Q4:	3	225	295	264	413
433	33	Q4:	1	300
434	25	Q4:	1	381
435	28	Q0:	3
436	16	Q0:	0	286
437	27	Q1:	2
438	11	Q2:	2	268
439	27	Q0:	3	345	5
440	12	Q1:	3	39	343	13
441	27	Q1:	2	174	408
442	16	Q1:	3
443	31	Q4:	0	434	241
444	13	Q4:	0	304	225	165
445	37	Q4:	3	63
446	24	Q0:	0	118	416	394	428
447	28	Q4:	1
448	13	Q1:	2	328
449	23	Q1:	1
450	10	Q2:	2
451	18	Q1:	3
452	30	Q2:	0
453	21	Q4:	2	299
454	35	Q3:	0	108
455	22	Q0:	3	213
456	24	Q0:	3	260	441
457	36	Q0:	1
458	39	Q3:	0
459	14	Q4:	2
460	26	Q3:	0	440
461	39	Q3:	3	50
462	12	Q1:	3	95
463	20	Q2:	0	278
464	20	Q3:	2	157
465	33	Q1:	0	139
466	38	Q1:	0	286	348
467	23	Q2:	0	177	163
468	16	Q1:	3	360
469	36	Q2:	0
470	24	Q3:	0
471	28	Q3:	2
472	29	Q4:	1
473	29	Q1:	2
474	13	Q2:	0	298
475	35	Q1:	2	189
476	32	Q3:	3	334
477	13	Q4:	0
478	13	Q4:	3
479	30	Q4:	2	397
480	18	Q0:	0	199	241
481	17	Q3:	1
482	16	Q0:	3	206	151
483	40	Q4:	0	476
484	12	Q4:	0	399	227
485	36	Q1:	3	298
486	9	Q1:	0
487	29	Q3:	0	15
488	21	Q3:	2
489	29	Q0:	3	198	283
490	12	Q1:	3	152	280	66
491	17	Q2:	1	11
492	30	Q4:	3
493	18	Q1:	1	344	328
494	31	Q2:	0	374
495	11	Q0:	3
496	22	Q1:	3
497	20	Q1:	3
498	35	Q0:	0	230
499	36	Q4:	0	61	321
500	26	Q4:	0
501	22	Q0:	1
502	19	Q1:	3
503	12	Q4:	1
504	10	Q4:	2	350
505	16	Q3:	0
506	16	Q4:	1	193	192
507	24	Q4:	2
508	26	Q1:	3	428
509	40	Q3:	0	113	3	440	125
510	9	Q4:	1
511	37	Q2:	1	434	431	318
512	28	Q1:	2	10
513	26	Q1:	0
514	11	Q4:	2
515	31	Q3:	0	389	135
516	37	Q0:	1	317
517	34	Q2:	1	347	87
518	13	Q2:	2	483	56
519	24	Q4:	1	511
520	22	Q3:	1
521	10	Q0:	1	506
522	27	Q3:	1
523	16	Q3:	3	201	287
524	33	Q4:	0	292
525	26	Q2:	1	359	55	273	444
526	35	Q0:	3	437	370
527	38	Q0:	0	24
528	16	Q1:	3	116
529	16	Q3:	1
530	32	Q2:	0	242
531	9	Q3:	1	419	391
532	27	Q3:	0	483
533	37	Q4:	2	126	248
534	13	Q4:	0	369
535	9	Q3:	3	296	134
536	33	Q3:	1	439
537	36	Q1:	2	167
538	21	Q4:	1	111	217
539	31	Q3:	3
540	22	Q1:	3	273
541	27	Q3:	0
542	33	Q4:	2	241
543	12	Q1:	1	18
544	31	Q2:	0
545	29	Q4:	3	371	478	409	46	497	489
546	10	Q4:	2	348	126
547	38	Q4:	3	546	51
548	36	Q3:	3
549	13	Q1:	0
550	33	Q4:	3
551	30	Q3:	0	469
552	9	Q2:	0
553	29	Q2:	1	192
554	19	Q2:	0	502	298
555	26	Q3:	1
556	22	Q2:	0
557	14	Q1:	1	68
558	40	Q3:	2	493
559	36	Q0:	3	215	180	3	159
560	26	Q1:	0
561	30	Q1:	0	98	541
562	38	Q3:	2
563	31	Q2:	2	164	527
564	20	Q1:	3
565	24	Q1:	1	347
566	25	Q3:	3	358
567	10	Q3:	3
568	21	Q0:	1	368	312
569	32	Q1:	0
570	28	Q4:	3
571	21	Q4:	2	303
572	12	Q3:	3
573	21	Q3:	0	123	129
574	16	Q4:	0
575	12	Q3:	0	142
576	35	Q1:	3	545
577	23	Q0:	1	408	365
578	18	Q2:	1	487	311
579	31	Q0:	1	322
580	18	Q1:	1
581	35	Q3:	1
582	29	Q2:	0	82	405	468
583	10	Q3:	0	68
584	32	Q0:	3	439	580
585	12	Q2:	2
586	16	Q1:	1
587	22	Q4:	3	497	446	175	464	438
588	23	Q4:	2
589	28	Q2:	1	105
590	39	Q1:	2	64
591	39	Q4:	3	295
592	13	Q4:	0
593	14	Q3:	0
594	21	Q0:	1
595	9	Q3:	2	118	80	403
596	9	Q1:	0	325	164
597	26	Q4:	0
598	23	Q0:	3	496
599	35	Q4:	1	69	254
600	26	Q4:	1	239
601	9	Q3:	0	486
602	32	Q2:	2
603	29	Q3:	0	162
604	36	Q3:	2
605	12	Q3:	1	293
606	34	Q1:	0	178	281	302
607	18	Q0:	3	477	395	538
608	35	Q3:	1	277	290
609	18	Q1:	0
610	27	Q4:	0	494
611	27	Q0:	3
612	27	Q2:	0	357	457
613	22	Q3:	2	259
614	14	Q3:	3
615	25	Q3:	0	380	270
616	37	Q0:	0	75
617	24	Q4:	0	478
618	13	Q1:	3	277	73
619	13	Q3:	1	260
620	26	Q4:	2	228
621	21	Q3:	0	580
622	18	Q4:	2	315
623	36	Q3:	1
624	35	Q0:	0	360
625	17	Q2:	1	102
626	32	Q4:	2	394	404
627	12	Q3:	3	311	436	50
628	38	Q4:	2	71
629	9	Q2:	2
630	39	Q1:	3	167	122	193	161
631	39	Q1:	3
632	30	Q0:	3	530	98	203
633	17	Q4:	1
634	26	Q3:	0
635	10	Q4:	3
636	24	Q3:	0
637	37	Q4:	1	56
638	35	Q2:	0
639	17	Q2:	2	125	357
640	40	Q4:	2
641	31	Q1:	2
642	22	Q4:	1	313
643	20	Q4:	2	323	106
644	17	Q4:	0
645	36	Q4:	0	516
646	9	Q4:	2	244	361
647	21	Q1:	0	535	595
648	34	Q3:	3
649	33	Q1:	3	469	25
650	36	Q3:	0	365
651	27	Q2:	0	176
652	29	Q3:	0	277
653	21	Q2:	2	215	222
654	40	Q2:	0	146
655	28	Q4:	3	193
656	26	Q0:	0	108	113	610	79
657	30	Q0:	0	99	425	582
658	25	Q4:	2	233	384
659	20	Q3:	3	148
660	31	Q2:	2	245	646	27	98	573
661	25	Q4:	1	271	444	145
662	28	Q3:	3	311	38	567
663	19	Q4:	3	655	577
664	14	Q0:	3	465
665	12	Q3:	2	173	297	655
666	11	Q1:	2	513	35	540
667	25	Q3:	0
668	23	Q3:	1
669	34	Q4:	2
670	34	Q4:	0	572	234
671	35	Q4:	1	473	102
672	20	Q1:	0
673	36	Q3:	0	424
674	26	Q1:	1	535	52
675	29	Q3:	3	110	325	165
676	21	Q2:	2	77	79
677	21	Q4:	0	416
678	11	Q1:	2
679	39	Q2:	0	674	561
680	39	Q4:	3	481	23
681	28	Q1:	1
682	35	Q0:	1	328
683	10	Q0:	3	72
684	9	Q3:	3	141	464
685	26	Q4:	1	62
686	29	Q2:	0
687	34	Q1:	1	77
688	27	Q3:	0
689	29	Q1:	1	519	532	611
690	32	Q2:	2	537
691	33	Q0:	1	624
692	30	Q4:	1	473
693	18	Q4:	0	341	667
694	37	Q3:	0	9
695	39	Q3:	1	153	630	599	570
696	9	Q2:	0	172	202
697	10	Q3:	2	384	525	51
698	19	Q2:	2	330	415	241
699	10	Q0:	3
700	26	Q0:	3	21
701	25	Q3:	0	576
702	13	Q3:	3	444	673	580
703	15	Q3:	0
704	19	Q0:	1	600
705	39	Q0:	0
706	23	Q1:	1
707	40	Q0:	1	373
708	39	Q1:	1	60
709	38	Q3:	2	471
710	30	Q3:	2	680	505	120	324	269
711	11	Q3:	3	114	402
712	30	Q1:	2
713	23	Q2:	1	35
714	32	Q4:	0	410	421
715	21	Q4:	3	226	198	142
716	9	Q2:	0	655
717	25	Q3:	0	676
718	24	Q3:	2	210
719	38	Q3:	3
720	24	Q1:	3	209
721	22	Q0:	3	103	194
722	27	Q0:	0	339
723	27	Q3:	0	102
724	24	Q1:	2
725	35	Q3:	0
726	19	Q3:	2	325
727	32	Q1:	3	256
728	20	Q1:	1
729	32	Q4:	3	301	362	466
730	37	Q4:	1	9	527
731	10	Q2:	2	550
732	23	Q3:	2	661	70
733	17	Q2:	1	691	134	236
734	34	Q2:	0	693
735	24	Q1:	1	297
736	16	Q2:	2	265	180
737	38	Q0:	1	29	701	568
738	18	Q0:	1	416
739	38	Q2:	2	503
740	33	Q2:	0
741	26	Q1:	2	240	83
742	39	Q3:	1
743	24	Q4:	2
744	37	Q0:	3	310	195	386
745	34	Q2:	1	306
746	22	Q4:	2	284	275
747	13	Q1:	3	247	692
748	37	Q3:	2	656	640	236	484
749	37	Q3:	1	679
750	9	Q0:	3	631	292	20
751	37	Q4:	2	368	549	657	149	684	270
752	30	Q4:	3	25	502	33	579	295
753	22	Q0:	0	504	266
754	26	Q0:	3	277
755	11	Q4:	3	482
756	12	Q0:	3	25
757	15	Q1:	1	414
758	10	Q4:	0	687	540	630
759	30	Q4:	1	419	452
760	23	Q1:	2	340
761	21	Q2:	1	481
762	15	Q1:	2	571
763	29	Q4:	3	471	551
764	32	Q2:	0	451	421
765	40	Q0:	1
766	33	Q4:	1	556	372
767	21	Q0:	1	637	693	542	499
768	20	Q3:	3
769	24	Q3:	2	471
770	12	Q0:	0	516	183
771	37	Q4:	1	229	317
772	24	Q2:	1	429	443
773	14	Q1:	1	606	42	479
774	23	Q2:	0
775	34	Q4:	0
776	15	Q0:	0
777	31	Q2:	1	27	62
778	15	Q3:	3	23
779	16	Q3:	2	569
780	36	Q3:	0	334	731	9
781	19	Q3:	0	649
782	31	Q2:	0	768
783	37	Q2:	0	288	161
784	31	Q2:	1	59
785	40	Q3:	3
786	25	Q3:	1
787	35	Q3:	1	214	263
788	37	Q4:	1	758
789	15	Q4:	3	170
790	28	Q4:	0	740
791	14	Q4:	3
792	34	Q1:	1	489	402	17
793	22	Q0:	1
794	34	Q2:	0	468	420
795	26	Q3:	0	3	336
796	13	Q2:	0	438
797	36	Q4:	3	214	61	164
798	38	Q4:	0	741
799	14	Q2:	1	252
800	21	Q3:	3
801	18	Q1:	1
802	14	Q2:	1	712
803	19	Q2:	1
804	34	Q1:	2
805	30	Q2:	0	340
806	19	Q3:	1	474
807	15	Q4:	1	614
808	16	Q4:	3	655	527
809	29	Q1:	0	384
810	16	Q3:	2	12	471	164	603	383
811	34	Q2:	0	612	358
812	25	Q0:	3	702
813	21	Q1:	0	314
814	37	Q0:	1	536	577
815	26	Q4:	3	651	470	284
816	30	Q0:	1	239
817	37	Q2:	1	683
818	25	Q4:	2	696	489	45
819	37	Q0:	1	748
820	10	Q4:	2
821	18	Q1:	3	232
822	12	Q2:	0	342
823	37	Q4:	3	736	543
824	32	Q3:	3	792	553
825	20	Q0:	0	464	89	216
826	35	Q2:	1	701	509
827	33	Q4:	2	179	62	606	765	172	40
828	38	Q4:	2	27
829	38	Q3:	2	221	749
830	15	Q2:	2	192	569	502
831	34	Q2:	0	662	637	317
832	31	Q4:	3	590
833	23	Q2:	2	799
834	27	Q0:	0	145	788
835	22	Q1:	2	474	574	98	675
836	10	Q4:	3	594	86
837	10	Q4:	2
838	12	Q0:	3	340	442
839	14	Q4:	3	49	20	489
840	13	Q3:	2	774	729	568
841	25	Q4:	1	657	578	497
842	14	Q2:	0
843	11	Q3:	2	92	544	3	488	36
844	19	Q4:	1	209
845	14	Q0:	1	310	53
846	14	Q1:	0
847	14	Q4:	1	695
848	32	Q2:	2
849	10	Q2:	2	655
850	18	Q2:	1
851	28	Q3:	0	413	267
852	17	Q3:	3	61
853	15	Q3:	0	109	734
854	19	Q1:	0	717
855	21	Q0:	1
856	40	Q2:	0	525	670
857	40	Q1:	1
858	10	Q3:	3	684	173
859	38	Q4:	2	793	447	803
860	34	Q4:	1	284	452
861	11	Q4:	1	853	311
862	39	Q3:	3	20
863	27	Q4:	3	750	504
864	16	Q4:	3	343	395	57	224
865	17	Q1:	0	725
866	17	Q3:	3	74	487	3	588	321	194	154
867	28	Q1:	0
868	9	Q4:	2	120	172
869	9	Q3:	1	695
870	25	Q1:	0	622
871	25	Q1:	0
872	23	Q0:	1
873	37	Q4:	0	75	232
874	20	Q1:	0	717	402
875	39	Q4:	3	728	320
876	28	Q2:	1	854
877	22	Q1:	3	330
878	32	Q0:	0	22	652	731	163
879	20	Q4:	1	367	484	223
880	10	Q0:	0	108	461
881	15	Q4:	2	90
882	21	Q1:	1	826
883	20	Q3:	1	602	441	534
884	29	Q2:	1	802	831
885	19	Q0:	0
886	24	Q0:	0	638	522
887	26	Q4:	0	342
888	30	Q0:	0	628
889	36	Q2:	2	853	639	403
890	35	Q4:	2	385
891	31	Q3:	2	123	344
892	29	Q1:	1
893	17	Q4:	3	611
894	23	Q4:	1	396	792
895	31	Q2:	1	210
896	22	Q1:	3	676	777
897	15	Q1:	1	182	628	280
898	40	Q1:	2	855	154	261
899	31	Q3:	2	373	651
900	38	Q4:	1	665	394
901	32	Q4:	2	197	234
902	38	Q1:	3	166	764
903	30	Q0:	0	9
904	13	Q2:	1	762	585
905	29	Q4:	2	751	475	806	371
906	32	Q2:	0	10
907	17	Q2:	1	180	864
908	24	Q0:	0	350
909	36	Q4:	1
910	17	Q4:	3	782	420
911	38	Q3:	3	728	834
912	38	Q4:	1	776	839	588	52
913	9	Q2:	2	576	117	346	720
914	23	Q0:	0	269
915	32	Q1:	2	287	564
916	35	Q1:	1	125	358
917	34	Q4:	1	55
918	34	Q4:	2	463	752	651
919	30	Q1:	1	602	576
920	23	Q2:	0	146	873
921	35	Q2:	1	247	720
922	20	Q2:	2	75	417	224
923	22	Q2:	0	910
924	38	Q2:	1	906	859	247
925	38	Q0:	1	199	739	39
926	38	Q3:	2	595	168
927	18	Q2:	1	542	882
928	24	Q4:	2	181	205	250
929	13	Q3:	3
930	36	Q3:	1	719	350	767
931	13	Q0:	3	590
932	31	Q1:	2	859
933	34	Q0:	0	691	140	112
934	17	Q3:	1	624	380
935	12	Q0:	3	698	767	275	875	697
936	40	Q3:	2	770
937	30	Q4:	1	861
938	24	Q3:	2
939	35	Q3:	1	508	938	685
940	19	Q3:	1
941	33	Q1:	2	74	288
942	33	Q3:	1	290	570	480	214
943	35	Q2:	0	394	916
944	13	Q1:	1	607
945	30	Q0:	0	783
946	32	Q2:	1
947	36	Q0:	1	482	261
948	24	Q4:	3	727
949	25	Q2:	0	729	704	938	597
950	34	Q4:	3	561	421
951	23	Q2:	2	9	78
952	11	Q1:	3	103	541
953	12	Q3:	0
954	24	Q2:	1	592
955	10	Q3:	2
956	11	Q4:	1	339	452
957	29	Q2:	1
958	25	Q0:	0	224
959	27	Q4:	1	766	388	114	199
960	39	Q2:	1	222
961	33	Q4:	0	719	67
962	39	Q3:	1	797
963	23	Q2:	0	830	328
964	28	Q1:	0	232
965	25	Q1:	3	152
966	19	Q4:	0	782	88
967	19	Q3:	0	82	70
968	10	Q0:	0	210
969	40	Q4:	2	937	221	780
970	31	Q0:	1	239	539	196
971	20	Q3:	0	684
972	18	Q0:	0	456	731
973	36	Q0:	0	591
974	37	Q3:	2	122	136
975	31	Q3:	0	519	496	596	745
976	28	Q2:	1	653
977	13	Q2:	1
978	35	Q1:	3	494
979	11	Q3:	0	457	204	665
980	37	Q3:	0	431
981	27	Q2:	2	147	337
982	20	Q1:	3	60	425
983	29	Q1:	3	654	490
984	36	Q2:	2	249	670	578
985	19	Q1:	1
986	18	Q3:	2	961	391	692
987	21	Q1:	3	102	740
988	17	Q4:	3	674	338
989	15	Q3:	1	356
990	33	Q2:	2	768	363
991	21	Q4:	2	590	766	325	987
992	19	Q0:	3	207	589
993	21	Q1:	3
994	14	Q1:	2	401
995	39	Q1:	3	764
996	38	Q3:	1	436	585	279	885	892
997	23	Q4:	3	354
998	12	Q0:	1	819
999	31	Q0:	0	862
1000	24	Q4:	2	961	567
========================================================== 